127 136072
1 16 35 37 36 41 30 14 12 15 6 106 23 4 72 8 67 73 74 68 71 70 76 77 18 19 17 21 22 20 108 24 9 11 114 105 7 120 13 115 52 124 55 66 113 125 89 92 99 65 112 111 107 127 93 95 103 45 44 40 43 34 38 39 42 123 97 98 101 102 63 119 126 82 83 32 29 28 122 33 25 26 27 31 79 80 78 117 84 81 75 69 96 109 88 87 85 86 110 104 59 62 116 90 60 61 91 58 64 100 3 10 50 5 121 56 47 49 46 94 118 48 53 54 57 51 2 
